g3 0 1 0	# problem steenbrf
 468 108 1 0 108	# vars, constraints, objectives, ranges, eqns
 0 1	# nonlinear constraints, objectives
 0 0	# network constraints: nonlinear, linear
 0 108 0	# nonlinear vars in constraints, objectives, both
 0 0 0 1	# linear network variables; functions; arith, flags
 0 0 0 0 0	# discrete variables: binary, integer, nonlinear (b,c,o)
 864 108	# nonzeros in Jacobian, gradients
 4 4	# max name lengths: constraints, variables
 0 0 0 0 0	# common exprs: b,c,o,c1,o1
b
2 1e-2
2 1e-2
2 0
2 0
2 0
2 0
2 1e-2
2 1e-2
2 0
2 0
2 0
2 0
2 1e-2
2 1e-2
2 0
2 0
2 0
2 0
2 1e-2
2 1e-2
2 0
2 0
2 0
2 0
2 1e-2
2 1e-2
2 0
2 0
2 0
2 0
2 1e-2
2 1e-2
2 0
2 0
2 0
2 0
2 1e-2
2 1e-2
2 0
2 0
2 0
2 0
2 1e-2
2 1e-2
2 0
2 0
2 0
2 0
2 1e-2
2 1e-2
2 0
2 0
2 0
2 0
2 1e-2
2 1e-2
2 0
2 0
2 0
2 0
2 1e-2
2 1e-2
2 0
2 0
2 0
2 0
2 1e-2
2 1e-2
2 0
2 0
2 0
2 0
2 1e-2
2 1e-2
2 0
2 0
2 0
2 0
2 1e-2
2 1e-2
2 0
2 0
2 0
2 0
2 1e-2
2 1e-2
2 0
2 0
2 0
2 0
2 1e-2
2 1e-2
2 0
2 0
2 0
2 0
2 1e-2
2 1e-2
2 0
2 0
2 0
2 0
2 1e-2
2 1e-2
2 0
2 0
2 0
2 0
2 0
2 0
2 0
2 0
2 0
2 0
2 0
2 0
2 0
2 0
2 0
2 0
2 0
2 0
2 0
2 0
2 0
2 0
2 0
2 0
2 0
2 0
2 0
2 0
2 0
2 0
2 0
2 0
2 0
2 0
2 0
2 0
2 0
2 0
2 0
2 0
2 0
2 0
2 0
2 0
2 0
2 0
2 0
2 0
2 0
2 0
2 0
2 0
2 0
2 0
2 0
2 0
2 0
2 0
2 0
2 0
2 0
2 0
2 0
2 0
2 0
2 0
2 0
2 0
2 0
2 0
2 0
2 0
2 0
2 0
2 0
2 0
2 0
2 0
2 0
2 0
2 0
2 0
2 0
2 0
2 0
2 0
2 0
2 0
2 0
2 0
2 0
2 0
2 0
2 0
2 0
2 0
2 0
2 0
2 0
2 0
2 0
2 0
2 0
2 0
2 0
2 0
2 0
2 0
2 0
2 0
2 0
2 0
2 0
2 0
2 0
2 0
2 0
2 0
2 0
2 0
2 0
2 0
2 0
2 0
2 0
2 0
2 0
2 0
2 0
2 0
2 0
2 0
2 0
2 0
2 0
2 0
2 0
2 0
2 0
2 0
2 0
2 0
2 0
2 0
2 0
2 0
2 0
2 0
2 0
2 0
2 0
2 0
2 0
2 0
2 0
2 0
2 0
2 0
2 0
2 0
2 0
2 0
2 0
2 0
2 0
2 0
2 0
2 0
2 0
2 0
2 0
2 0
2 0
2 0
2 0
2 0
2 0
2 0
2 0
2 0
2 0
2 0
2 0
2 0
2 0
2 0
2 0
2 0
2 0
2 0
2 0
2 0
2 0
2 0
2 0
2 0
2 0
2 0
2 0
2 0
2 0
2 0
2 0
2 0
2 0
2 0
2 0
2 0
2 0
2 0
2 0
2 0
2 0
2 0
2 0
2 0
2 0
2 0
2 0
2 0
2 0
2 0
2 0
2 0
2 0
2 0
2 0
2 0
2 0
2 0
2 0
2 0
2 0
2 0
2 0
2 0
2 0
2 0
2 0
2 0
2 0
2 0
2 0
2 0
2 0
2 0
2 0
2 0
2 0
2 0
2 0
2 0
2 0
2 0
2 0
2 0
2 0
2 0
2 0
2 0
2 0
2 0
2 0
2 0
2 0
2 0
2 0
2 0
2 0
2 0
2 0
2 0
2 0
2 0
2 0
2 0
2 0
2 0
2 0
2 0
2 0
2 0
2 0
2 0
2 0
2 0
2 0
2 0
2 0
2 0
2 0
2 0
2 0
2 0
2 0
2 0
2 0
2 0
2 0
2 0
2 0
2 0
2 0
2 0
2 0
2 0
2 0
2 0
2 0
2 0
2 0
2 0
2 0
2 0
2 0
2 0
2 0
2 0
2 0
2 0
2 0
2 0
2 0
2 0
2 0
2 0
2 0
2 0
2 0
2 0
2 0
2 0
2 0
2 0
2 0
2 0
2 0
2 0
2 0
2 0
2 0
2 0
2 0
2 0
2 0
2 0
2 0
2 0
2 0
2 0
2 0
2 0
2 0
2 0
2 0
2 0
2 0
2 0
2 0
2 0
2 0
2 0
2 0
2 0
x468
0 .1
1 .1
2 .1
3 .1
4 .1
5 .1
6 .1
7 .1
8 .1
9 .1
10 .1
11 .1
12 .1
13 .1
14 .1
15 .1
16 .1
17 .1
18 .1
19 .1
20 .1
21 .1
22 .1
23 .1
24 .1
25 .1
26 .1
27 .1
28 .1
29 .1
30 .1
31 .1
32 .1
33 .1
34 .1
35 .1
36 .1
37 .1
38 .1
39 .1
40 .1
41 .1
42 .1
43 .1
44 .1
45 .1
46 .1
47 .1
48 .1
49 .1
50 .1
51 .1
52 .1
53 .1
54 .1
55 .1
56 .1
57 .1
58 .1
59 .1
60 .1
61 .1
62 .1
63 .1
64 .1
65 .1
66 .1
67 .1
68 .1
69 .1
70 .1
71 .1
72 .1
73 .1
74 .1
75 .1
76 .1
77 .1
78 .1
79 .1
80 .1
81 .1
82 .1
83 .1
84 .1
85 .1
86 .1
87 .1
88 .1
89 .1
90 .1
91 .1
92 .1
93 .1
94 .1
95 .1
96 .1
97 .1
98 .1
99 .1
100 .1
101 .1
102 .1
103 .1
104 .1
105 .1
106 .1
107 .1
108 .1
109 .1
110 .1
111 .1
112 .1
113 .1
114 .1
115 .1
116 .1
117 .1
118 .1
119 .1
120 .1
121 .1
122 .1
123 .1
124 .1
125 .1
126 .1
127 .1
128 .1
129 .1
130 .1
131 .1
132 .1
133 .1
134 .1
135 .1
136 .1
137 .1
138 .1
139 .1
140 .1
141 .1
142 .1
143 .1
144 .1
145 .1
146 .1
147 .1
148 .1
149 .1
150 .1
151 .1
152 .1
153 .1
154 .1
155 .1
156 .1
157 .1
158 .1
159 .1
160 .1
161 .1
162 .1
163 .1
164 .1
165 .1
166 .1
167 .1
168 .1
169 .1
170 .1
171 .1
172 .1
173 .1
174 .1
175 .1
176 .1
177 .1
178 .1
179 .1
180 .1
181 .1
182 .1
183 .1
184 .1
185 .1
186 .1
187 .1
188 .1
189 .1
190 .1
191 .1
192 .1
193 .1
194 .1
195 .1
196 .1
197 .1
198 .1
199 .1
200 .1
201 .1
202 .1
203 .1
204 .1
205 .1
206 .1
207 .1
208 .1
209 .1
210 .1
211 .1
212 .1
213 .1
214 .1
215 .1
216 .1
217 .1
218 .1
219 .1
220 .1
221 .1
222 .1
223 .1
224 .1
225 .1
226 .1
227 .1
228 .1
229 .1
230 .1
231 .1
232 .1
233 .1
234 .1
235 .1
236 .1
237 .1
238 .1
239 .1
240 .1
241 .1
242 .1
243 .1
244 .1
245 .1
246 .1
247 .1
248 .1
249 .1
250 .1
251 .1
252 .1
253 .1
254 .1
255 .1
256 .1
257 .1
258 .1
259 .1
260 .1
261 .1
262 .1
263 .1
264 .1
265 .1
266 .1
267 .1
268 .1
269 .1
270 .1
271 .1
272 .1
273 .1
274 .1
275 .1
276 .1
277 .1
278 .1
279 .1
280 .1
281 .1
282 .1
283 .1
284 .1
285 .1
286 .1
287 .1
288 .1
289 .1
290 .1
291 .1
292 .1
293 .1
294 .1
295 .1
296 .1
297 .1
298 .1
299 .1
300 .1
301 .1
302 .1
303 .1
304 .1
305 .1
306 .1
307 .1
308 .1
309 .1
310 .1
311 .1
312 .1
313 .1
314 .1
315 .1
316 .1
317 .1
318 .1
319 .1
320 .1
321 .1
322 .1
323 .1
324 .1
325 .1
326 .1
327 .1
328 .1
329 .1
330 .1
331 .1
332 .1
333 .1
334 .1
335 .1
336 .1
337 .1
338 .1
339 .1
340 .1
341 .1
342 .1
343 .1
344 .1
345 .1
346 .1
347 .1
348 .1
349 .1
350 .1
351 .1
352 .1
353 .1
354 .1
355 .1
356 .1
357 .1
358 .1
359 .1
360 .1
361 .1
362 .1
363 .1
364 .1
365 .1
366 .1
367 .1
368 .1
369 .1
370 .1
371 .1
372 .1
373 .1
374 .1
375 .1
376 .1
377 .1
378 .1
379 .1
380 .1
381 .1
382 .1
383 .1
384 .1
385 .1
386 .1
387 .1
388 .1
389 .1
390 .1
391 .1
392 .1
393 .1
394 .1
395 .1
396 .1
397 .1
398 .1
399 .1
400 .1
401 .1
402 .1
403 .1
404 .1
405 .1
406 .1
407 .1
408 .1
409 .1
410 .1
411 .1
412 .1
413 .1
414 .1
415 .1
416 .1
417 .1
418 .1
419 .1
420 .1
421 .1
422 .1
423 .1
424 .1
425 .1
426 .1
427 .1
428 .1
429 .1
430 .1
431 .1
432 .1
433 .1
434 .1
435 .1
436 .1
437 .1
438 .1
439 .1
440 .1
441 .1
442 .1
443 .1
444 .1
445 .1
446 .1
447 .1
448 .1
449 .1
450 .1
451 .1
452 .1
453 .1
454 .1
455 .1
456 .1
457 .1
458 .1
459 .1
460 .1
461 .1
462 .1
463 .1
464 .1
465 .1
466 .1
467 .1
r
4 0
4 -2e3
4 2e3
4 0
4 0
4 0
4 0
4 0
4 0
4 0
4 -2e3
4 0
4 2e3
4 0
4 0
4 0
4 0
4 0
4 0
4 -1e3
4 0
4 0
4 1e3
4 0
4 0
4 0
4 0
4 0
4 0
4 -1e3
4 1e3
4 0
4 0
4 0
4 0
4 0
4 0
4 0
4 -2e3
4 0
4 2e3
4 0
4 0
4 0
4 0
4 0
4 0
4 0
4 -1e3
4 1e3
4 0
4 0
4 0
4 0
4 0
4 200
4 -200
4 0
4 0
4 0
4 0
4 0
4 0
4 0
4 200
4 0
4 -200
4 0
4 0
4 0
4 0
4 0
4 0
4 100
4 0
4 0
4 -100
4 0
4 0
4 0
4 0
4 0
4 0
4 100
4 -100
4 0
4 0
4 0
4 0
4 0
4 0
4 0
4 200
4 0
4 -200
4 0
4 0
4 0
4 0
4 0
4 0
4 0
4 100
4 -100
4 0
4 0
4 0
4 0
C0
n0
C1
n0
C2
n0
C3
n0
C4
n0
C5
n0
C6
n0
C7
n0
C8
n0
C9
n0
C10
n0
C11
n0
C12
n0
C13
n0
C14
n0
C15
n0
C16
n0
C17
n0
C18
n0
C19
n0
C20
n0
C21
n0
C22
n0
C23
n0
C24
n0
C25
n0
C26
n0
C27
n0
C28
n0
C29
n0
C30
n0
C31
n0
C32
n0
C33
n0
C34
n0
C35
n0
C36
n0
C37
n0
C38
n0
C39
n0
C40
n0
C41
n0
C42
n0
C43
n0
C44
n0
C45
n0
C46
n0
C47
n0
C48
n0
C49
n0
C50
n0
C51
n0
C52
n0
C53
n0
C54
n0
C55
n0
C56
n0
C57
n0
C58
n0
C59
n0
C60
n0
C61
n0
C62
n0
C63
n0
C64
n0
C65
n0
C66
n0
C67
n0
C68
n0
C69
n0
C70
n0
C71
n0
C72
n0
C73
n0
C74
n0
C75
n0
C76
n0
C77
n0
C78
n0
C79
n0
C80
n0
C81
n0
C82
n0
C83
n0
C84
n0
C85
n0
C86
n0
C87
n0
C88
n0
C89
n0
C90
n0
C91
n0
C92
n0
C93
n0
C94
n0
C95
n0
C96
n0
C97
n0
C98
n0
C99
n0
C100
n0
C101
n0
C102
n0
C103
n0
C104
n0
C105
n0
C106
n0
C107
n0
O0 0
o16
o54
144
o2
n-.5
o39
v103
o2
n-.5
o39
v102
o16
o3
o2
n.5
o0
o2
o2
o0
v105
v107
o0
v105
v107
v105
v107
o2
v103
v103
o16
o3
o2
n.5
o0
o2
o2
o0
v104
v106
o0
v104
v106
v104
v106
o2
v102
v102
o2
n-.5
o39
v97
o2
n-.5
o39
v96
o16
o3
o2
n.5
o0
o2
o2
o0
v99
v101
o0
v99
v101
v99
v101
o2
v97
v97
o16
o3
o2
n.5
o0
o2
o2
o0
v98
v100
o0
v98
v100
v98
v100
o2
v96
v96
o2
n-.3
o39
v91
o2
n-.3
o39
v90
o16
o3
o2
n.3
o0
o2
o2
o0
v93
v95
o0
v93
v95
v93
v95
o2
v91
v91
o16
o3
o2
n.3
o0
o2
o2
o0
v92
v94
o0
v92
v94
v92
v94
o2
v90
v90
o2
n-.25
o39
v85
o2
n-.25
o39
v84
o16
o3
o2
n.25
o0
o2
o2
o0
v87
v89
o0
v87
v89
v87
v89
o2
v85
v85
o16
o3
o2
n.25
o0
o2
o2
o0
v86
v88
o0
v86
v88
v86
v88
o2
v84
v84
o2
n-.6
o39
v79
o2
n-.6
o39
v78
o16
o3
o2
n.6
o0
o2
o2
o0
v81
v83
o0
v81
v83
v81
v83
o2
v79
v79
o16
o3
o2
n.6
o0
o2
o2
o0
v80
v82
o0
v80
v82
v80
v82
o2
v78
v78
o2
n-.4
o39
v73
o2
n-.4
o39
v72
o16
o3
o2
n.4
o0
o2
o2
o0
v75
v77
o0
v75
v77
v75
v77
o2
v73
v73
o16
o3
o2
n.4
o0
o2
o2
o0
v74
v76
o0
v74
v76
v74
v76
o2
v72
v72
o2
n-.15
o39
v67
o2
n-.15
o39
v66
o16
o3
o2
n.15
o0
o2
o2
o0
v69
v71
o0
v69
v71
v69
v71
o2
v67
v67
o16
o3
o2
n.15
o0
o2
o2
o0
v68
v70
o0
v68
v70
v68
v70
o2
v66
v66
o2
n-.55
o39
v61
o2
n-.55
o39
v60
o16
o3
o2
n.55
o0
o2
o2
o0
v63
v65
o0
v63
v65
v63
v65
o2
v61
v61
o16
o3
o2
n.55
o0
o2
o2
o0
v62
v64
o0
v62
v64
v62
v64
o2
v60
v60
o2
n-.35
o39
v55
o2
n-.35
o39
v54
o16
o3
o2
n.35
o0
o2
o2
o0
v57
v59
o0
v57
v59
v57
v59
o2
v55
v55
o16
o3
o2
n.35
o0
o2
o2
o0
v56
v58
o0
v56
v58
v56
v58
o2
v54
v54
o2
n-.6
o39
v49
o2
n-.6
o39
v48
o16
o3
o2
n.6
o0
o2
o2
o0
v51
v53
o0
v51
v53
v51
v53
o2
v49
v49
o16
o3
o2
n.6
o0
o2
o2
o0
v50
v52
o0
v50
v52
v50
v52
o2
v48
v48
o2
n-.25
o39
v43
o2
n-.25
o39
v42
o16
o3
o2
n.25
o0
o2
o2
o0
v45
v47
o0
v45
v47
v45
v47
o2
v43
v43
o16
o3
o2
n.25
o0
o2
o2
o0
v44
v46
o0
v44
v46
v44
v46
o2
v42
v42
o16
o39
v37
o16
o39
v36
o16
o3
o0
o2
o2
o0
v39
v41
o0
v39
v41
v39
v41
o2
v37
v37
o16
o3
o0
o2
o2
o0
v38
v40
o0
v38
v40
v38
v40
o2
v36
v36
o2
n-.55
o39
v31
o2
n-.55
o39
v30
o16
o3
o2
n.55
o0
o2
o2
o0
v33
v35
o0
v33
v35
v33
v35
o2
v31
v31
o16
o3
o2
n.55
o0
o2
o2
o0
v32
v34
o0
v32
v34
v32
v34
o2
v30
v30
o2
n-.15
o39
v25
o2
n-.15
o39
v24
o16
o3
o2
n.15
o0
o2
o2
o0
v27
v29
o0
v27
v29
v27
v29
o2
v25
v25
o16
o3
o2
n.15
o0
o2
o2
o0
v26
v28
o0
v26
v28
v26
v28
o2
v24
v24
o2
n-.5
o39
v19
o2
n-.5
o39
v18
o16
o3
o0
o2
o2
o0
v21
v23
o0
v21
v23
v21
v23
o2
v19
v19
o16
o3
o0
o2
o2
o0
v20
v22
o0
v20
v22
v20
v22
o2
v18
v18
o2
n-.3
o39
v13
o2
n-.3
o39
v12
o16
o3
o2
n.3
o0
o2
o2
o0
v15
v17
o0
v15
v17
v15
v17
o2
v13
v13
o16
o3
o2
n.3
o0
o2
o2
o0
v14
v16
o0
v14
v16
v14
v16
o2
v12
v12
o2
n-.4
o39
v7
o2
n-.4
o39
v6
o16
o3
o2
n.4
o0
o2
o2
o0
v9
v11
o0
v9
v11
v9
v11
o2
v7
v7
o16
o3
o2
n.4
o0
o2
o2
o0
v8
v10
o0
v8
v10
v8
v10
o2
v6
v6
o2
n-.35
o39
v1
o2
n-.35
o39
v0
o16
o3
o2
n.35
o0
o2
o2
o0
v3
v5
o0
v3
v5
v3
v5
o2
v1
v1
o16
o3
o2
n.35
o0
o2
o2
o0
v2
v4
o0
v2
v4
v2
v4
o2
v0
v0
o2
n-.35
v2
o2
n-.35
v4
o2
n-.5
v105
o2
n-.5
v107
o2
n-.5
v104
o2
n-.5
v106
o2
n-.5
v99
o2
n-.5
v101
o2
n-.5
v98
o2
n-.5
v100
o2
n-.3
v93
o2
n-.3
v95
o2
n-.3
v92
o2
n-.3
v94
o2
n-.25
v87
o2
n-.25
v89
o2
n-.25
v86
o2
n-.25
v88
o2
n-.6
v81
o2
n-.6
v83
o2
n-.6
v80
o2
n-.6
v82
o2
n-.4
v75
o2
n-.4
v77
o2
n-.4
v74
o2
n-.4
v76
o2
n-.15
v69
o2
n-.15
v71
o2
n-.15
v68
o2
n-.15
v70
o2
n-.55
v63
o2
n-.55
v65
o2
n-.55
v62
o2
n-.55
v64
o2
n-.35
v57
o2
n-.35
v59
o2
n-.35
v56
o2
n-.35
v58
o2
n-.6
v51
o2
n-.6
v53
o2
n-.6
v50
o2
n-.6
v52
o2
n-.25
v45
o2
n-.25
v47
o2
n-.25
v44
o2
n-.25
v46
o16
v39
o16
v41
o16
v38
o16
v40
o2
n-.55
v33
o2
n-.55
v35
o2
n-.55
v32
o2
n-.55
v34
o2
n-.15
v27
o2
n-.15
v29
o2
n-.15
v26
o2
n-.15
v28
o16
v21
o16
v23
o16
v20
o16
v22
o2
n-.3
v15
o2
n-.3
v17
o2
n-.3
v14
o2
n-.3
v16
o2
n-.4
v9
o2
n-.4
v11
o2
n-.4
v8
o2
n-.4
v10
o2
n-.35
v3
o2
n-.35
v5
k467
0
0
2
4
6
8
8
8
10
12
14
16
16
16
18
20
22
24
24
24
26
28
30
32
32
32
34
36
38
40
40
40
42
44
46
48
48
48
50
52
54
56
56
56
58
60
62
64
64
64
66
68
70
72
72
72
74
76
78
80
80
80
82
84
86
88
88
88
90
92
94
96
96
96
98
100
102
104
104
104
106
108
110
112
112
112
114
116
118
120
120
120
122
124
126
128
128
128
130
132
134
136
136
136
138
140
142
144
146
148
150
152
154
156
158
160
162
164
166
168
170
172
174
176
178
180
182
184
186
188
190
192
194
196
198
200
202
204
206
208
210
212
214
216
218
220
222
224
226
228
230
232
234
236
238
240
242
244
246
248
250
252
254
256
258
260
262
264
266
268
270
272
274
276
278
280
282
284
286
288
290
292
294
296
298
300
302
304
306
308
310
312
314
316
318
320
322
324
326
328
330
332
334
336
338
340
342
344
346
348
350
352
354
356
358
360
362
364
366
368
370
372
374
376
378
380
382
384
386
388
390
392
394
396
398
400
402
404
406
408
410
412
414
416
418
420
422
424
426
428
430
432
434
436
438
440
442
444
446
448
450
452
454
456
458
460
462
464
466
468
470
472
474
476
478
480
482
484
486
488
490
492
494
496
498
500
502
504
506
508
510
512
514
516
518
520
522
524
526
528
530
532
534
536
538
540
542
544
546
548
550
552
554
556
558
560
562
564
566
568
570
572
574
576
578
580
582
584
586
588
590
592
594
596
598
600
602
604
606
608
610
612
614
616
618
620
622
624
626
628
630
632
634
636
638
640
642
644
646
648
650
652
654
656
658
660
662
664
666
668
670
672
674
676
678
680
682
684
686
688
690
692
694
696
698
700
702
704
706
708
710
712
714
716
718
720
722
724
726
728
730
732
734
736
738
740
742
744
746
748
750
752
754
756
758
760
762
764
766
768
770
772
774
776
778
780
782
784
786
788
790
792
794
796
798
800
802
804
806
808
810
812
814
816
818
820
822
824
826
828
830
832
834
836
838
840
842
844
846
848
850
852
854
856
858
860
862
J0 6
426 1
427 -1
446 1
447 -1
466 1
467 -1
J1 8
366 1
367 -1
386 1
387 -1
406 1
407 -1
466 -1
467 1
J2 8
306 1
307 -1
326 1
327 -1
346 1
347 -1
446 -1
447 1
J3 8
246 1
247 -1
266 1
267 -1
286 1
287 -1
406 -1
407 1
J4 8
186 1
187 -1
206 1
207 -1
226 1
227 -1
346 -1
347 1
J5 6
166 1
167 -1
226 -1
227 1
286 -1
287 1
J6 8
146 1
147 -1
326 -1
327 1
386 -1
387 1
426 -1
427 1
J7 12
126 1
127 -1
146 -1
147 1
206 -1
207 1
266 -1
267 1
306 -1
307 1
366 -1
367 1
J8 8
126 -1
127 1
166 -1
167 1
186 -1
187 1
246 -1
247 1
J9 6
424 1
425 -1
444 1
445 -1
464 1
465 -1
J10 8
364 1
365 -1
384 1
385 -1
404 1
405 -1
464 -1
465 1
J11 8
304 1
305 -1
324 1
325 -1
344 1
345 -1
444 -1
445 1
J12 8
244 1
245 -1
264 1
265 -1
284 1
285 -1
404 -1
405 1
J13 8
184 1
185 -1
204 1
205 -1
224 1
225 -1
344 -1
345 1
J14 6
164 1
165 -1
224 -1
225 1
284 -1
285 1
J15 8
144 1
145 -1
324 -1
325 1
384 -1
385 1
424 -1
425 1
J16 12
124 1
125 -1
144 -1
145 1
204 -1
205 1
264 -1
265 1
304 -1
305 1
364 -1
365 1
J17 8
124 -1
125 1
164 -1
165 1
184 -1
185 1
244 -1
245 1
J18 6
422 1
423 -1
442 1
443 -1
462 1
463 -1
J19 8
362 1
363 -1
382 1
383 -1
402 1
403 -1
462 -1
463 1
J20 8
302 1
303 -1
322 1
323 -1
342 1
343 -1
442 -1
443 1
J21 8
242 1
243 -1
262 1
263 -1
282 1
283 -1
402 -1
403 1
J22 8
182 1
183 -1
202 1
203 -1
222 1
223 -1
342 -1
343 1
J23 6
162 1
163 -1
222 -1
223 1
282 -1
283 1
J24 8
142 1
143 -1
322 -1
323 1
382 -1
383 1
422 -1
423 1
J25 12
122 1
123 -1
142 -1
143 1
202 -1
203 1
262 -1
263 1
302 -1
303 1
362 -1
363 1
J26 8
122 -1
123 1
162 -1
163 1
182 -1
183 1
242 -1
243 1
J27 6
420 1
421 -1
440 1
441 -1
460 1
461 -1
J28 8
360 1
361 -1
380 1
381 -1
400 1
401 -1
460 -1
461 1
J29 8
300 1
301 -1
320 1
321 -1
340 1
341 -1
440 -1
441 1
J30 8
240 1
241 -1
260 1
261 -1
280 1
281 -1
400 -1
401 1
J31 8
180 1
181 -1
200 1
201 -1
220 1
221 -1
340 -1
341 1
J32 6
160 1
161 -1
220 -1
221 1
280 -1
281 1
J33 8
140 1
141 -1
320 -1
321 1
380 -1
381 1
420 -1
421 1
J34 12
120 1
121 -1
140 -1
141 1
200 -1
201 1
260 -1
261 1
300 -1
301 1
360 -1
361 1
J35 8
120 -1
121 1
160 -1
161 1
180 -1
181 1
240 -1
241 1
J36 6
418 1
419 -1
438 1
439 -1
458 1
459 -1
J37 8
358 1
359 -1
378 1
379 -1
398 1
399 -1
458 -1
459 1
J38 8
298 1
299 -1
318 1
319 -1
338 1
339 -1
438 -1
439 1
J39 8
238 1
239 -1
258 1
259 -1
278 1
279 -1
398 -1
399 1
J40 8
178 1
179 -1
198 1
199 -1
218 1
219 -1
338 -1
339 1
J41 6
158 1
159 -1
218 -1
219 1
278 -1
279 1
J42 8
138 1
139 -1
318 -1
319 1
378 -1
379 1
418 -1
419 1
J43 12
118 1
119 -1
138 -1
139 1
198 -1
199 1
258 -1
259 1
298 -1
299 1
358 -1
359 1
J44 8
118 -1
119 1
158 -1
159 1
178 -1
179 1
238 -1
239 1
J45 6
416 1
417 -1
436 1
437 -1
456 1
457 -1
J46 8
356 1
357 -1
376 1
377 -1
396 1
397 -1
456 -1
457 1
J47 8
296 1
297 -1
316 1
317 -1
336 1
337 -1
436 -1
437 1
J48 8
236 1
237 -1
256 1
257 -1
276 1
277 -1
396 -1
397 1
J49 8
176 1
177 -1
196 1
197 -1
216 1
217 -1
336 -1
337 1
J50 6
156 1
157 -1
216 -1
217 1
276 -1
277 1
J51 8
136 1
137 -1
316 -1
317 1
376 -1
377 1
416 -1
417 1
J52 12
116 1
117 -1
136 -1
137 1
196 -1
197 1
256 -1
257 1
296 -1
297 1
356 -1
357 1
J53 8
116 -1
117 1
156 -1
157 1
176 -1
177 1
236 -1
237 1
J54 6
414 1
415 -1
434 1
435 -1
454 1
455 -1
J55 8
354 1
355 -1
374 1
375 -1
394 1
395 -1
454 -1
455 1
J56 8
294 1
295 -1
314 1
315 -1
334 1
335 -1
434 -1
435 1
J57 8
234 1
235 -1
254 1
255 -1
274 1
275 -1
394 -1
395 1
J58 8
174 1
175 -1
194 1
195 -1
214 1
215 -1
334 -1
335 1
J59 6
154 1
155 -1
214 -1
215 1
274 -1
275 1
J60 8
134 1
135 -1
314 -1
315 1
374 -1
375 1
414 -1
415 1
J61 12
114 1
115 -1
134 -1
135 1
194 -1
195 1
254 -1
255 1
294 -1
295 1
354 -1
355 1
J62 8
114 -1
115 1
154 -1
155 1
174 -1
175 1
234 -1
235 1
J63 6
412 1
413 -1
432 1
433 -1
452 1
453 -1
J64 8
352 1
353 -1
372 1
373 -1
392 1
393 -1
452 -1
453 1
J65 8
292 1
293 -1
312 1
313 -1
332 1
333 -1
432 -1
433 1
J66 8
232 1
233 -1
252 1
253 -1
272 1
273 -1
392 -1
393 1
J67 8
172 1
173 -1
192 1
193 -1
212 1
213 -1
332 -1
333 1
J68 6
152 1
153 -1
212 -1
213 1
272 -1
273 1
J69 8
132 1
133 -1
312 -1
313 1
372 -1
373 1
412 -1
413 1
J70 12
112 1
113 -1
132 -1
133 1
192 -1
193 1
252 -1
253 1
292 -1
293 1
352 -1
353 1
J71 8
112 -1
113 1
152 -1
153 1
172 -1
173 1
232 -1
233 1
J72 6
410 1
411 -1
430 1
431 -1
450 1
451 -1
J73 8
350 1
351 -1
370 1
371 -1
390 1
391 -1
450 -1
451 1
J74 8
290 1
291 -1
310 1
311 -1
330 1
331 -1
430 -1
431 1
J75 8
230 1
231 -1
250 1
251 -1
270 1
271 -1
390 -1
391 1
J76 8
170 1
171 -1
190 1
191 -1
210 1
211 -1
330 -1
331 1
J77 6
150 1
151 -1
210 -1
211 1
270 -1
271 1
J78 8
130 1
131 -1
310 -1
311 1
370 -1
371 1
410 -1
411 1
J79 12
110 1
111 -1
130 -1
131 1
190 -1
191 1
250 -1
251 1
290 -1
291 1
350 -1
351 1
J80 8
110 -1
111 1
150 -1
151 1
170 -1
171 1
230 -1
231 1
J81 6
408 1
409 -1
428 1
429 -1
448 1
449 -1
J82 8
348 1
349 -1
368 1
369 -1
388 1
389 -1
448 -1
449 1
J83 8
288 1
289 -1
308 1
309 -1
328 1
329 -1
428 -1
429 1
J84 8
228 1
229 -1
248 1
249 -1
268 1
269 -1
388 -1
389 1
J85 8
168 1
169 -1
188 1
189 -1
208 1
209 -1
328 -1
329 1
J86 6
148 1
149 -1
208 -1
209 1
268 -1
269 1
J87 8
128 1
129 -1
308 -1
309 1
368 -1
369 1
408 -1
409 1
J88 12
108 1
109 -1
128 -1
129 1
188 -1
189 1
248 -1
249 1
288 -1
289 1
348 -1
349 1
J89 8
108 -1
109 1
148 -1
149 1
168 -1
169 1
228 -1
229 1
J90 6
2 -1
3 1
8 -1
9 1
14 -1
15 1
J91 8
2 1
3 -1
20 -1
21 1
26 -1
27 1
32 -1
33 1
J92 8
8 1
9 -1
38 -1
39 1
44 -1
45 1
50 -1
51 1
J93 8
20 1
21 -1
56 -1
57 1
62 -1
63 1
68 -1
69 1
J94 8
38 1
39 -1
74 -1
75 1
80 -1
81 1
86 -1
87 1
J95 6
56 1
57 -1
74 1
75 -1
92 -1
93 1
J96 8
14 1
15 -1
26 1
27 -1
44 1
45 -1
98 -1
99 1
J97 12
32 1
33 -1
50 1
51 -1
62 1
63 -1
80 1
81 -1
98 1
99 -1
104 -1
105 1
J98 8
68 1
69 -1
86 1
87 -1
92 1
93 -1
104 1
105 -1
J99 6
4 -1
5 1
10 -1
11 1
16 -1
17 1
J100 8
4 1
5 -1
22 -1
23 1
28 -1
29 1
34 -1
35 1
J101 8
10 1
11 -1
40 -1
41 1
46 -1
47 1
52 -1
53 1
J102 8
22 1
23 -1
58 -1
59 1
64 -1
65 1
70 -1
71 1
J103 8
40 1
41 -1
76 -1
77 1
82 -1
83 1
88 -1
89 1
J104 6
58 1
59 -1
76 1
77 -1
94 -1
95 1
J105 8
16 1
17 -1
28 1
29 -1
46 1
47 -1
100 -1
101 1
J106 12
34 1
35 -1
52 1
53 -1
64 1
65 -1
82 1
83 -1
100 1
101 -1
106 -1
107 1
J107 8
70 1
71 -1
88 1
89 -1
94 1
95 -1
106 1
107 -1
G0 108
0 0
1 0
2 0
3 0
4 0
5 0
6 0
7 0
8 0
9 0
10 0
11 0
12 0
13 0
14 0
15 0
16 0
17 0
18 0
19 0
20 0
21 0
22 0
23 0
24 0
25 0
26 0
27 0
28 0
29 0
30 0
31 0
32 0
33 0
34 0
35 0
36 0
37 0
38 0
39 0
40 0
41 0
42 0
43 0
44 0
45 0
46 0
47 0
48 0
49 0
50 0
51 0
52 0
53 0
54 0
55 0
56 0
57 0
58 0
59 0
60 0
61 0
62 0
63 0
64 0
65 0
66 0
67 0
68 0
69 0
70 0
71 0
72 0
73 0
74 0
75 0
76 0
77 0
78 0
79 0
80 0
81 0
82 0
83 0
84 0
85 0
86 0
87 0
88 0
89 0
90 0
91 0
92 0
93 0
94 0
95 0
96 0
97 0
98 0
99 0
100 0
101 0
102 0
103 0
104 0
105 0
106 0
107 0
